Traveling Salesman Problem/TSP_generados/Aleatorio1621103301_8.tsp
NAME: Aleatorio1621103301_8.tsp
COMMENT: Randomly generated scenario
TYPE: TSP
DIMENSION: 8
EDGE_WEIGHT_TYPE: ATT
NODE_COORD_SECTION
1 49.86 42.4
2 33.95 1.95
3 21.87 3.76
4 8.12 30.45
5 40.57 26.04
6 44.24 14.68
7 8.28 8.23
8 40.77 44.79
